Name:		mgval_0.40_7C
Optimal value:	-1
#Vehicles:	9
Capacity:	65
Depot Node:	1
#Nodes:		40
#Edges:		28
#Arcs:		62
#Required N:	27
#Required E:	16
#Required A:	37

ReN.	DEMAND	S. COST
N3	3	3
N4	7	7
N5	10	10
N6	5	5
N7	3	3
N8	8	8
N10	12	12
N11	16	16
N12	18	18
N14	7	7
N15	9	9
N16	4	4
N17	6	6
N18	27	27
N20	8	8
N21	3	3
N22	2	2
N24	5	5
N27	5	5
N28	13	13
N31	5	5
N32	12	12
N33	16	16
N35	20	20
N36	6	6
N37	2	2
N38	2	2

ReE.	FROM N.	TO N.	T. COST	DEMAND	S. COST
E13	31	38	4	9	9
E14	26	27	4	8	8
E15	32	39	2	8	8
E16	27	34	3	9	9
E17	35	36	6	14	14
E18	33	34	3	8	8
E19	8	14	7	10	10
E20	13	19	6	12	12
E21	29	36	4	9	9
E22	23	24	2	7	7
E23	2	36	3	12	12
E24	26	34	5	16	16
E25	3	7	2	3	3
E26	22	25	1	3	3
E27	1	6	3	8	8
E28	29	30	3	12	12

EDGE	FROM N.	TO N.	T. COST
NrE1	12	17	4
NrE2	18	19	4
NrE3	14	15	4
NrE4	4	38	3
NrE5	7	13	1
NrE6	1	10	8
NrE7	18	22	6
NrE8	1	33	4
NrE9	24	25	2
NrE10	1	35	4
NrE11	20	23	3
NrE12	11	16	3

ReA.	FROM N.	TO N.	T. COST	DEMAND	S. COST
A26	39	5	2	3	3
A27	18	17	5	8	8
A28	11	1	3	6	6
A29	37	30	3	5	5
A30	2	6	2	4	4
A31	35	34	6	4	4
A32	1	8	4	9	9
A33	13	18	2	2	2
A34	30	31	3	5	5
A35	21	20	2	3	3
A36	21	22	1	2	2
A37	15	16	3	4	4
A38	24	21	3	3	3
A39	1	40	4	5	5
A40	11	12	7	4	4
A41	34	35	6	4	4
A42	39	38	7	5	5
A43	3	4	2	2	2
A44	31	37	5	7	7
A45	16	10	4	8	8
A46	2	1	2	2	2
A47	37	3	4	3	3
A48	9	10	2	3	3
A49	8	9	5	6	6
A50	2	3	5	9	9
A51	20	17	6	12	12
A52	40	1	4	5	5
A53	26	33	5	7	7
A54	6	2	2	4	4
A55	37	36	4	7	7
A56	1	2	2	1	1
A57	12	11	7	5	5
A58	10	9	2	3	3
A59	7	6	4	4	4
A60	38	39	7	4	4
A61	9	8	5	6	6
A62	18	13	2	3	3

ARC	FROM N.	TO N.	T. COST
NrA1	15	9	2
NrA2	36	37	4
NrA3	5	39	2
NrA4	31	30	3
NrA5	28	27	3
NrA6	37	38	2
NrA7	4	3	2
NrA8	33	26	5
NrA9	35	28	10
NrA10	6	7	4
NrA11	38	37	2
NrA12	22	21	1
NrA13	17	13	2
NrA14	1	11	3
NrA15	16	15	3
NrA16	12	6	2
NrA17	3	37	4
NrA18	32	31	5
NrA19	5	4	3
NrA20	12	13	6
NrA21	28	35	10
NrA22	21	24	3
NrA23	27	28	3
NrA24	8	40	5
NrA25	6	12	2
